&CONTROL
  calculation = 'vc-relax'
  etot_conv_thr =   4.0000000000d-05
  forc_conv_thr =   1.0000000000d-04
  outdir = './out/'
  prefix = 'BN_rel'
  pseudo_dir = './pseudo/'
  tprnfor = .true.
  tstress = .true.
  verbosity = 'high'
/
&SYSTEM
  ecutrho =   3.3600000000d+02
  ecutwfc =   8.4000000000d+01
  ibrav = 0
  nat = 4
  nosym = .false.
  ibrav=4
  A=2.511 ! Lattice constant in Angstrom
  C=30
  ntyp = 2
  occupations = 'fixed'
  vdw_corr = 'DFT-D'
  assume_isolated = '2D'
/
&ELECTRONS
  conv_thr =   1.0000000000d-10
  mixing_beta =   4.0000000000d-01
/
&IONS
/
&CELL
cell_dofree = '2Dxy'
/
ATOMIC_SPECIES
B      10.811  B.UPF
N      14.0067 N.UPF
ATOMIC_POSITIONS (crystal)
B                0.0000000000        0.0000000000        0.4345988811
B                0.3333333333        0.6666666667        0.5661956084
N                0.3333333333        0.6666666667        0.4330103862
N                0.6666666667        0.3333333333        0.5661951243
K_POINTS automatic
30 30 1 0 0 0